param num_nodes_1 := 9;
param num_nodes_2 := 11;

set IJ :=
    1  1  
    1  2  
    1  3  
    1  4  
    1  5  
    1  6  
    1  7  
    1  8  
    1  9  
    1  10  
    1  11  
    2  1  
    2  2  
    2  3  
    2  4  
    2  5  
    2  6  
    2  7  
    2  8  
    2  9  
    2  10  
    2  11  
    3  1  
    3  2  
    3  3  
    3  4  
    3  5  
    3  6  
    3  7  
    3  8  
    3  9  
    3  10  
    3  11  
    4  1  
    4  2  
    4  3  
    4  4  
    4  5  
    4  6  
    4  7  
    4  8  
    4  9  
    4  10  
    4  11  
    5  1  
    5  2  
    5  3  
    5  4  
    5  5  
    5  6  
    5  7  
    5  8  
    5  9  
    5  10  
    5  11  
    6  1  
    6  2  
    6  3  
    6  4  
    6  5  
    6  6  
    6  7  
    6  8  
    6  9  
    6  10  
    6  11  
    7  1  
    7  2  
    7  3  
    7  4  
    7  5  
    7  6  
    7  7  
    7  8  
    7  9  
    7  10  
    7  11  
    8  1  
    8  2  
    8  3  
    8  4  
    8  5  
    8  6  
    8  7  
    8  8  
    8  9  
    8  10  
    8  11  
    9  1  
    9  2  
    9  3  
    9  4  
    9  5  
    9  6  
    9  7  
    9  8  
    9  9  
    9  10  
    9  11 ;

param: IJKL: list_1_i list_1_j list_1_k list_1_l :=
1	  1  1  2  4  
2	  1  2  2  3  
3	  1  4  2  6  
4	  1  4  2  7  
5	  1  5  2  6  
6	  1  6  2  8  
7	  1  7  2  8  
8	  1  7  2  10  
9	  1  9  2  10  
10	  1  10  2  11  
11	  2  1  9  4  
12	  2  2  9  3  
13	  2  4  9  6  
14	  2  4  9  7  
15	  2  5  9  6  
16	  2  6  9  8  
17	  2  7  9  8  
18	  2  7  9  10  
19	  2  9  9  10  
20	  2  10  9  11  
21	  3  1  4  4  
22	  3  2  4  3  
23	  3  4  4  6  
24	  3  4  4  7  
25	  3  5  4  6  
26	  3  6  4  8  
27	  3  7  4  8  
28	  3  7  4  10  
29	  3  9  4  10  
30	  3  10  4  11  
31	  3  1  5  4  
32	  3  2  5  3  
33	  3  4  5  6  
34	  3  4  5  7  
35	  3  5  5  6  
36	  3  6  5  8  
37	  3  7  5  8  
38	  3  7  5  10  
39	  3  9  5  10  
40	  3  10  5  11  
41	  5  1  6  4  
42	  5  2  6  3  
43	  5  4  6  6  
44	  5  4  6  7  
45	  5  5  6  6  
46	  5  6  6  8  
47	  5  7  6  8  
48	  5  7  6  10  
49	  5  9  6  10  
50	  5  10  6  11  
51	  6  1  7  4  
52	  6  2  7  3  
53	  6  4  7  6  
54	  6  4  7  7  
55	  6  5  7  6  
56	  6  6  7  8  
57	  6  7  7  8  
58	  6  7  7  10  
59	  6  9  7  10  
60	  6  10  7  11  
61	  7  1  9  4  
62	  7  2  9  3  
63	  7  4  9  6  
64	  7  4  9  7  
65	  7  5  9  6  
66	  7  6  9  8  
67	  7  7  9  8  
68	  7  7  9  10  
69	  7  9  9  10  
70	  7  10  9  11  
71	  8  1  9  4  
72	  8  2  9  3  
73	  8  4  9  6  
74	  8  4  9  7  
75	  8  5  9  6  
76	  8  6  9  8  
77	  8  7  9  8  
78	  8  7  9  10  
79	  8  9  9  10  
80	  8  10  9  11  ;

param: NOX: list_2_i list_2_j list_2_k list_2_l := 
1	 1  2  2  1 
2	 1  2  3  1 
3	 1  2  4  1 
4	 1  2  5  1 
5	 1  2  6  1 
6	 1  2  7  1 
7	 1  2  8  1 
8	 1  2  9  1 
9	 1  3  2  1 
10	 1  3  2  2 
11	 1  3  3  1 
12	 1  3  3  2 
13	 1  3  4  1 
14	 1  3  4  2 
15	 1  3  5  1 
16	 1  3  5  2 
17	 1  3  6  1 
18	 1  3  6  2 
19	 1  3  7  1 
20	 1  3  7  2 
21	 1  3  8  1 
22	 1  3  8  2 
23	 1  3  9  1 
24	 1  3  9  2 
25	 1  4  2  1 
26	 1  4  2  2 
27	 1  4  2  3 
28	 1  4  3  1 
29	 1  4  3  2 
30	 1  4  3  3 
31	 1  4  4  1 
32	 1  4  4  2 
33	 1  4  4  3 
34	 1  4  5  1 
35	 1  4  5  2 
36	 1  4  5  3 
37	 1  4  6  1 
38	 1  4  6  2 
39	 1  4  6  3 
40	 1  4  7  1 
41	 1  4  7  2 
42	 1  4  7  3 
43	 1  4  8  1 
44	 1  4  8  2 
45	 1  4  8  3 
46	 1  4  9  1 
47	 1  4  9  2 
48	 1  4  9  3 
49	 1  5  2  1 
50	 1  5  2  2 
51	 1  5  2  3 
52	 1  5  2  4 
53	 1  5  3  1 
54	 1  5  3  2 
55	 1  5  3  3 
56	 1  5  3  4 
57	 1  5  4  1 
58	 1  5  4  2 
59	 1  5  4  3 
60	 1  5  4  4 
61	 1  5  5  1 
62	 1  5  5  2 
63	 1  5  5  3 
64	 1  5  5  4 
65	 1  5  6  1 
66	 1  5  6  2 
67	 1  5  6  3 
68	 1  5  6  4 
69	 1  5  7  1 
70	 1  5  7  2 
71	 1  5  7  3 
72	 1  5  7  4 
73	 1  5  8  1 
74	 1  5  8  2 
75	 1  5  8  3 
76	 1  5  8  4 
77	 1  5  9  1 
78	 1  5  9  2 
79	 1  5  9  3 
80	 1  5  9  4 
81	 1  6  2  1 
82	 1  6  2  2 
83	 1  6  2  3 
84	 1  6  2  4 
85	 1  6  2  5 
86	 1  6  3  1 
87	 1  6  3  2 
88	 1  6  3  3 
89	 1  6  3  4 
90	 1  6  3  5 
91	 1  6  4  1 
92	 1  6  4  2 
93	 1  6  4  3 
94	 1  6  4  4 
95	 1  6  4  5 
96	 1  6  5  1 
97	 1  6  5  2 
98	 1  6  5  3 
99	 1  6  5  4 
100	 1  6  5  5 
101	 1  6  6  1 
102	 1  6  6  2 
103	 1  6  6  3 
104	 1  6  6  4 
105	 1  6  6  5 
106	 1  6  7  1 
107	 1  6  7  2 
108	 1  6  7  3 
109	 1  6  7  4 
110	 1  6  7  5 
111	 1  6  8  1 
112	 1  6  8  2 
113	 1  6  8  3 
114	 1  6  8  4 
115	 1  6  8  5 
116	 1  6  9  1 
117	 1  6  9  2 
118	 1  6  9  3 
119	 1  6  9  4 
120	 1  6  9  5 
121	 1  7  2  1 
122	 1  7  2  2 
123	 1  7  2  3 
124	 1  7  2  4 
125	 1  7  2  5 
126	 1  7  2  6 
127	 1  7  3  1 
128	 1  7  3  2 
129	 1  7  3  3 
130	 1  7  3  4 
131	 1  7  3  5 
132	 1  7  3  6 
133	 1  7  4  1 
134	 1  7  4  2 
135	 1  7  4  3 
136	 1  7  4  4 
137	 1  7  4  5 
138	 1  7  4  6 
139	 1  7  5  1 
140	 1  7  5  2 
141	 1  7  5  3 
142	 1  7  5  4 
143	 1  7  5  5 
144	 1  7  5  6 
145	 1  7  6  1 
146	 1  7  6  2 
147	 1  7  6  3 
148	 1  7  6  4 
149	 1  7  6  5 
150	 1  7  6  6 
151	 1  7  7  1 
152	 1  7  7  2 
153	 1  7  7  3 
154	 1  7  7  4 
155	 1  7  7  5 
156	 1  7  7  6 
157	 1  7  8  1 
158	 1  7  8  2 
159	 1  7  8  3 
160	 1  7  8  4 
161	 1  7  8  5 
162	 1  7  8  6 
163	 1  7  9  1 
164	 1  7  9  2 
165	 1  7  9  3 
166	 1  7  9  4 
167	 1  7  9  5 
168	 1  7  9  6 
169	 1  8  2  1 
170	 1  8  2  2 
171	 1  8  2  3 
172	 1  8  2  4 
173	 1  8  2  5 
174	 1  8  2  6 
175	 1  8  2  7 
176	 1  8  3  1 
177	 1  8  3  2 
178	 1  8  3  3 
179	 1  8  3  4 
180	 1  8  3  5 
181	 1  8  3  6 
182	 1  8  3  7 
183	 1  8  4  1 
184	 1  8  4  2 
185	 1  8  4  3 
186	 1  8  4  4 
187	 1  8  4  5 
188	 1  8  4  6 
189	 1  8  4  7 
190	 1  8  5  1 
191	 1  8  5  2 
192	 1  8  5  3 
193	 1  8  5  4 
194	 1  8  5  5 
195	 1  8  5  6 
196	 1  8  5  7 
197	 1  8  6  1 
198	 1  8  6  2 
199	 1  8  6  3 
200	 1  8  6  4 
201	 1  8  6  5 
202	 1  8  6  6 
203	 1  8  6  7 
204	 1  8  7  1 
205	 1  8  7  2 
206	 1  8  7  3 
207	 1  8  7  4 
208	 1  8  7  5 
209	 1  8  7  6 
210	 1  8  7  7 
211	 1  8  8  1 
212	 1  8  8  2 
213	 1  8  8  3 
214	 1  8  8  4 
215	 1  8  8  5 
216	 1  8  8  6 
217	 1  8  8  7 
218	 1  8  9  1 
219	 1  8  9  2 
220	 1  8  9  3 
221	 1  8  9  4 
222	 1  8  9  5 
223	 1  8  9  6 
224	 1  8  9  7 
225	 1  9  2  1 
226	 1  9  2  2 
227	 1  9  2  3 
228	 1  9  2  4 
229	 1  9  2  5 
230	 1  9  2  6 
231	 1  9  2  7 
232	 1  9  2  8 
233	 1  9  3  1 
234	 1  9  3  2 
235	 1  9  3  3 
236	 1  9  3  4 
237	 1  9  3  5 
238	 1  9  3  6 
239	 1  9  3  7 
240	 1  9  3  8 
241	 1  9  4  1 
242	 1  9  4  2 
243	 1  9  4  3 
244	 1  9  4  4 
245	 1  9  4  5 
246	 1  9  4  6 
247	 1  9  4  7 
248	 1  9  4  8 
249	 1  9  5  1 
250	 1  9  5  2 
251	 1  9  5  3 
252	 1  9  5  4 
253	 1  9  5  5 
254	 1  9  5  6 
255	 1  9  5  7 
256	 1  9  5  8 
257	 1  9  6  1 
258	 1  9  6  2 
259	 1  9  6  3 
260	 1  9  6  4 
261	 1  9  6  5 
262	 1  9  6  6 
263	 1  9  6  7 
264	 1  9  6  8 
265	 1  9  7  1 
266	 1  9  7  2 
267	 1  9  7  3 
268	 1  9  7  4 
269	 1  9  7  5 
270	 1  9  7  6 
271	 1  9  7  7 
272	 1  9  7  8 
273	 1  9  8  1 
274	 1  9  8  2 
275	 1  9  8  3 
276	 1  9  8  4 
277	 1  9  8  5 
278	 1  9  8  6 
279	 1  9  8  7 
280	 1  9  8  8 
281	 1  9  9  1 
282	 1  9  9  2 
283	 1  9  9  3 
284	 1  9  9  4 
285	 1  9  9  5 
286	 1  9  9  6 
287	 1  9  9  7 
288	 1  9  9  8 
289	 1  10  2  1 
290	 1  10  2  2 
291	 1  10  2  3 
292	 1  10  2  4 
293	 1  10  2  5 
294	 1  10  2  6 
295	 1  10  2  7 
296	 1  10  2  8 
297	 1  10  2  9 
298	 1  10  3  1 
299	 1  10  3  2 
300	 1  10  3  3 
301	 1  10  3  4 
302	 1  10  3  5 
303	 1  10  3  6 
304	 1  10  3  7 
305	 1  10  3  8 
306	 1  10  3  9 
307	 1  10  4  1 
308	 1  10  4  2 
309	 1  10  4  3 
310	 1  10  4  4 
311	 1  10  4  5 
312	 1  10  4  6 
313	 1  10  4  7 
314	 1  10  4  8 
315	 1  10  4  9 
316	 1  10  5  1 
317	 1  10  5  2 
318	 1  10  5  3 
319	 1  10  5  4 
320	 1  10  5  5 
321	 1  10  5  6 
322	 1  10  5  7 
323	 1  10  5  8 
324	 1  10  5  9 
325	 1  10  6  1 
326	 1  10  6  2 
327	 1  10  6  3 
328	 1  10  6  4 
329	 1  10  6  5 
330	 1  10  6  6 
331	 1  10  6  7 
332	 1  10  6  8 
333	 1  10  6  9 
334	 1  10  7  1 
335	 1  10  7  2 
336	 1  10  7  3 
337	 1  10  7  4 
338	 1  10  7  5 
339	 1  10  7  6 
340	 1  10  7  7 
341	 1  10  7  8 
342	 1  10  7  9 
343	 1  10  8  1 
344	 1  10  8  2 
345	 1  10  8  3 
346	 1  10  8  4 
347	 1  10  8  5 
348	 1  10  8  6 
349	 1  10  8  7 
350	 1  10  8  8 
351	 1  10  8  9 
352	 1  10  9  1 
353	 1  10  9  2 
354	 1  10  9  3 
355	 1  10  9  4 
356	 1  10  9  5 
357	 1  10  9  6 
358	 1  10  9  7 
359	 1  10  9  8 
360	 1  10  9  9 
361	 1  11  2  1 
362	 1  11  2  2 
363	 1  11  2  3 
364	 1  11  2  4 
365	 1  11  2  5 
366	 1  11  2  6 
367	 1  11  2  7 
368	 1  11  2  8 
369	 1  11  2  9 
370	 1  11  2  10 
371	 1  11  3  1 
372	 1  11  3  2 
373	 1  11  3  3 
374	 1  11  3  4 
375	 1  11  3  5 
376	 1  11  3  6 
377	 1  11  3  7 
378	 1  11  3  8 
379	 1  11  3  9 
380	 1  11  3  10 
381	 1  11  4  1 
382	 1  11  4  2 
383	 1  11  4  3 
384	 1  11  4  4 
385	 1  11  4  5 
386	 1  11  4  6 
387	 1  11  4  7 
388	 1  11  4  8 
389	 1  11  4  9 
390	 1  11  4  10 
391	 1  11  5  1 
392	 1  11  5  2 
393	 1  11  5  3 
394	 1  11  5  4 
395	 1  11  5  5 
396	 1  11  5  6 
397	 1  11  5  7 
398	 1  11  5  8 
399	 1  11  5  9 
400	 1  11  5  10 
401	 1  11  6  1 
402	 1  11  6  2 
403	 1  11  6  3 
404	 1  11  6  4 
405	 1  11  6  5 
406	 1  11  6  6 
407	 1  11  6  7 
408	 1  11  6  8 
409	 1  11  6  9 
410	 1  11  6  10 
411	 1  11  7  1 
412	 1  11  7  2 
413	 1  11  7  3 
414	 1  11  7  4 
415	 1  11  7  5 
416	 1  11  7  6 
417	 1  11  7  7 
418	 1  11  7  8 
419	 1  11  7  9 
420	 1  11  7  10 
421	 1  11  8  1 
422	 1  11  8  2 
423	 1  11  8  3 
424	 1  11  8  4 
425	 1  11  8  5 
426	 1  11  8  6 
427	 1  11  8  7 
428	 1  11  8  8 
429	 1  11  8  9 
430	 1  11  8  10 
431	 1  11  9  1 
432	 1  11  9  2 
433	 1  11  9  3 
434	 1  11  9  4 
435	 1  11  9  5 
436	 1  11  9  6 
437	 1  11  9  7 
438	 1  11  9  8 
439	 1  11  9  9 
440	 1  11  9  10 
441	 2  2  3  1 
442	 2  2  4  1 
443	 2  2  5  1 
444	 2  2  6  1 
445	 2  2  7  1 
446	 2  2  8  1 
447	 2  2  9  1 
448	 2  3  3  1 
449	 2  3  3  2 
450	 2  3  4  1 
451	 2  3  4  2 
452	 2  3  5  1 
453	 2  3  5  2 
454	 2  3  6  1 
455	 2  3  6  2 
456	 2  3  7  1 
457	 2  3  7  2 
458	 2  3  8  1 
459	 2  3  8  2 
460	 2  3  9  1 
461	 2  3  9  2 
462	 2  4  3  1 
463	 2  4  3  2 
464	 2  4  3  3 
465	 2  4  4  1 
466	 2  4  4  2 
467	 2  4  4  3 
468	 2  4  5  1 
469	 2  4  5  2 
470	 2  4  5  3 
471	 2  4  6  1 
472	 2  4  6  2 
473	 2  4  6  3 
474	 2  4  7  1 
475	 2  4  7  2 
476	 2  4  7  3 
477	 2  4  8  1 
478	 2  4  8  2 
479	 2  4  8  3 
480	 2  4  9  1 
481	 2  4  9  2 
482	 2  4  9  3 
483	 2  5  3  1 
484	 2  5  3  2 
485	 2  5  3  3 
486	 2  5  3  4 
487	 2  5  4  1 
488	 2  5  4  2 
489	 2  5  4  3 
490	 2  5  4  4 
491	 2  5  5  1 
492	 2  5  5  2 
493	 2  5  5  3 
494	 2  5  5  4 
495	 2  5  6  1 
496	 2  5  6  2 
497	 2  5  6  3 
498	 2  5  6  4 
499	 2  5  7  1 
500	 2  5  7  2 
501	 2  5  7  3 
502	 2  5  7  4 
503	 2  5  8  1 
504	 2  5  8  2 
505	 2  5  8  3 
506	 2  5  8  4 
507	 2  5  9  1 
508	 2  5  9  2 
509	 2  5  9  3 
510	 2  5  9  4 
511	 2  6  3  1 
512	 2  6  3  2 
513	 2  6  3  3 
514	 2  6  3  4 
515	 2  6  3  5 
516	 2  6  4  1 
517	 2  6  4  2 
518	 2  6  4  3 
519	 2  6  4  4 
520	 2  6  4  5 
521	 2  6  5  1 
522	 2  6  5  2 
523	 2  6  5  3 
524	 2  6  5  4 
525	 2  6  5  5 
526	 2  6  6  1 
527	 2  6  6  2 
528	 2  6  6  3 
529	 2  6  6  4 
530	 2  6  6  5 
531	 2  6  7  1 
532	 2  6  7  2 
533	 2  6  7  3 
534	 2  6  7  4 
535	 2  6  7  5 
536	 2  6  8  1 
537	 2  6  8  2 
538	 2  6  8  3 
539	 2  6  8  4 
540	 2  6  8  5 
541	 2  6  9  1 
542	 2  6  9  2 
543	 2  6  9  3 
544	 2  6  9  4 
545	 2  6  9  5 
546	 2  7  3  1 
547	 2  7  3  2 
548	 2  7  3  3 
549	 2  7  3  4 
550	 2  7  3  5 
551	 2  7  3  6 
552	 2  7  4  1 
553	 2  7  4  2 
554	 2  7  4  3 
555	 2  7  4  4 
556	 2  7  4  5 
557	 2  7  4  6 
558	 2  7  5  1 
559	 2  7  5  2 
560	 2  7  5  3 
561	 2  7  5  4 
562	 2  7  5  5 
563	 2  7  5  6 
564	 2  7  6  1 
565	 2  7  6  2 
566	 2  7  6  3 
567	 2  7  6  4 
568	 2  7  6  5 
569	 2  7  6  6 
570	 2  7  7  1 
571	 2  7  7  2 
572	 2  7  7  3 
573	 2  7  7  4 
574	 2  7  7  5 
575	 2  7  7  6 
576	 2  7  8  1 
577	 2  7  8  2 
578	 2  7  8  3 
579	 2  7  8  4 
580	 2  7  8  5 
581	 2  7  8  6 
582	 2  7  9  1 
583	 2  7  9  2 
584	 2  7  9  3 
585	 2  7  9  4 
586	 2  7  9  5 
587	 2  7  9  6 
588	 2  8  3  1 
589	 2  8  3  2 
590	 2  8  3  3 
591	 2  8  3  4 
592	 2  8  3  5 
593	 2  8  3  6 
594	 2  8  3  7 
595	 2  8  4  1 
596	 2  8  4  2 
597	 2  8  4  3 
598	 2  8  4  4 
599	 2  8  4  5 
600	 2  8  4  6 
601	 2  8  4  7 
602	 2  8  5  1 
603	 2  8  5  2 
604	 2  8  5  3 
605	 2  8  5  4 
606	 2  8  5  5 
607	 2  8  5  6 
608	 2  8  5  7 
609	 2  8  6  1 
610	 2  8  6  2 
611	 2  8  6  3 
612	 2  8  6  4 
613	 2  8  6  5 
614	 2  8  6  6 
615	 2  8  6  7 
616	 2  8  7  1 
617	 2  8  7  2 
618	 2  8  7  3 
619	 2  8  7  4 
620	 2  8  7  5 
621	 2  8  7  6 
622	 2  8  7  7 
623	 2  8  8  1 
624	 2  8  8  2 
625	 2  8  8  3 
626	 2  8  8  4 
627	 2  8  8  5 
628	 2  8  8  6 
629	 2  8  8  7 
630	 2  8  9  1 
631	 2  8  9  2 
632	 2  8  9  3 
633	 2  8  9  4 
634	 2  8  9  5 
635	 2  8  9  6 
636	 2  8  9  7 
637	 2  9  3  1 
638	 2  9  3  2 
639	 2  9  3  3 
640	 2  9  3  4 
641	 2  9  3  5 
642	 2  9  3  6 
643	 2  9  3  7 
644	 2  9  3  8 
645	 2  9  4  1 
646	 2  9  4  2 
647	 2  9  4  3 
648	 2  9  4  4 
649	 2  9  4  5 
650	 2  9  4  6 
651	 2  9  4  7 
652	 2  9  4  8 
653	 2  9  5  1 
654	 2  9  5  2 
655	 2  9  5  3 
656	 2  9  5  4 
657	 2  9  5  5 
658	 2  9  5  6 
659	 2  9  5  7 
660	 2  9  5  8 
661	 2  9  6  1 
662	 2  9  6  2 
663	 2  9  6  3 
664	 2  9  6  4 
665	 2  9  6  5 
666	 2  9  6  6 
667	 2  9  6  7 
668	 2  9  6  8 
669	 2  9  7  1 
670	 2  9  7  2 
671	 2  9  7  3 
672	 2  9  7  4 
673	 2  9  7  5 
674	 2  9  7  6 
675	 2  9  7  7 
676	 2  9  7  8 
677	 2  9  8  1 
678	 2  9  8  2 
679	 2  9  8  3 
680	 2  9  8  4 
681	 2  9  8  5 
682	 2  9  8  6 
683	 2  9  8  7 
684	 2  9  8  8 
685	 2  9  9  1 
686	 2  9  9  2 
687	 2  9  9  3 
688	 2  9  9  4 
689	 2  9  9  5 
690	 2  9  9  6 
691	 2  9  9  7 
692	 2  9  9  8 
693	 2  10  3  1 
694	 2  10  3  2 
695	 2  10  3  3 
696	 2  10  3  4 
697	 2  10  3  5 
698	 2  10  3  6 
699	 2  10  3  7 
700	 2  10  3  8 
701	 2  10  3  9 
702	 2  10  4  1 
703	 2  10  4  2 
704	 2  10  4  3 
705	 2  10  4  4 
706	 2  10  4  5 
707	 2  10  4  6 
708	 2  10  4  7 
709	 2  10  4  8 
710	 2  10  4  9 
711	 2  10  5  1 
712	 2  10  5  2 
713	 2  10  5  3 
714	 2  10  5  4 
715	 2  10  5  5 
716	 2  10  5  6 
717	 2  10  5  7 
718	 2  10  5  8 
719	 2  10  5  9 
720	 2  10  6  1 
721	 2  10  6  2 
722	 2  10  6  3 
723	 2  10  6  4 
724	 2  10  6  5 
725	 2  10  6  6 
726	 2  10  6  7 
727	 2  10  6  8 
728	 2  10  6  9 
729	 2  10  7  1 
730	 2  10  7  2 
731	 2  10  7  3 
732	 2  10  7  4 
733	 2  10  7  5 
734	 2  10  7  6 
735	 2  10  7  7 
736	 2  10  7  8 
737	 2  10  7  9 
738	 2  10  8  1 
739	 2  10  8  2 
740	 2  10  8  3 
741	 2  10  8  4 
742	 2  10  8  5 
743	 2  10  8  6 
744	 2  10  8  7 
745	 2  10  8  8 
746	 2  10  8  9 
747	 2  10  9  1 
748	 2  10  9  2 
749	 2  10  9  3 
750	 2  10  9  4 
751	 2  10  9  5 
752	 2  10  9  6 
753	 2  10  9  7 
754	 2  10  9  8 
755	 2  10  9  9 
756	 2  11  3  1 
757	 2  11  3  2 
758	 2  11  3  3 
759	 2  11  3  4 
760	 2  11  3  5 
761	 2  11  3  6 
762	 2  11  3  7 
763	 2  11  3  8 
764	 2  11  3  9 
765	 2  11  3  10 
766	 2  11  4  1 
767	 2  11  4  2 
768	 2  11  4  3 
769	 2  11  4  4 
770	 2  11  4  5 
771	 2  11  4  6 
772	 2  11  4  7 
773	 2  11  4  8 
774	 2  11  4  9 
775	 2  11  4  10 
776	 2  11  5  1 
777	 2  11  5  2 
778	 2  11  5  3 
779	 2  11  5  4 
780	 2  11  5  5 
781	 2  11  5  6 
782	 2  11  5  7 
783	 2  11  5  8 
784	 2  11  5  9 
785	 2  11  5  10 
786	 2  11  6  1 
787	 2  11  6  2 
788	 2  11  6  3 
789	 2  11  6  4 
790	 2  11  6  5 
791	 2  11  6  6 
792	 2  11  6  7 
793	 2  11  6  8 
794	 2  11  6  9 
795	 2  11  6  10 
796	 2  11  7  1 
797	 2  11  7  2 
798	 2  11  7  3 
799	 2  11  7  4 
800	 2  11  7  5 
801	 2  11  7  6 
802	 2  11  7  7 
803	 2  11  7  8 
804	 2  11  7  9 
805	 2  11  7  10 
806	 2  11  8  1 
807	 2  11  8  2 
808	 2  11  8  3 
809	 2  11  8  4 
810	 2  11  8  5 
811	 2  11  8  6 
812	 2  11  8  7 
813	 2  11  8  8 
814	 2  11  8  9 
815	 2  11  8  10 
816	 2  11  9  1 
817	 2  11  9  2 
818	 2  11  9  3 
819	 2  11  9  4 
820	 2  11  9  5 
821	 2  11  9  6 
822	 2  11  9  7 
823	 2  11  9  8 
824	 2  11  9  9 
825	 2  11  9  10 
826	 3  2  4  1 
827	 3  2  5  1 
828	 3  2  6  1 
829	 3  2  7  1 
830	 3  2  8  1 
831	 3  2  9  1 
832	 3  3  4  1 
833	 3  3  4  2 
834	 3  3  5  1 
835	 3  3  5  2 
836	 3  3  6  1 
837	 3  3  6  2 
838	 3  3  7  1 
839	 3  3  7  2 
840	 3  3  8  1 
841	 3  3  8  2 
842	 3  3  9  1 
843	 3  3  9  2 
844	 3  4  4  1 
845	 3  4  4  2 
846	 3  4  4  3 
847	 3  4  5  1 
848	 3  4  5  2 
849	 3  4  5  3 
850	 3  4  6  1 
851	 3  4  6  2 
852	 3  4  6  3 
853	 3  4  7  1 
854	 3  4  7  2 
855	 3  4  7  3 
856	 3  4  8  1 
857	 3  4  8  2 
858	 3  4  8  3 
859	 3  4  9  1 
860	 3  4  9  2 
861	 3  4  9  3 
862	 3  5  4  1 
863	 3  5  4  2 
864	 3  5  4  3 
865	 3  5  4  4 
866	 3  5  5  1 
867	 3  5  5  2 
868	 3  5  5  3 
869	 3  5  5  4 
870	 3  5  6  1 
871	 3  5  6  2 
872	 3  5  6  3 
873	 3  5  6  4 
874	 3  5  7  1 
875	 3  5  7  2 
876	 3  5  7  3 
877	 3  5  7  4 
878	 3  5  8  1 
879	 3  5  8  2 
880	 3  5  8  3 
881	 3  5  8  4 
882	 3  5  9  1 
883	 3  5  9  2 
884	 3  5  9  3 
885	 3  5  9  4 
886	 3  6  4  1 
887	 3  6  4  2 
888	 3  6  4  3 
889	 3  6  4  4 
890	 3  6  4  5 
891	 3  6  5  1 
892	 3  6  5  2 
893	 3  6  5  3 
894	 3  6  5  4 
895	 3  6  5  5 
896	 3  6  6  1 
897	 3  6  6  2 
898	 3  6  6  3 
899	 3  6  6  4 
900	 3  6  6  5 
901	 3  6  7  1 
902	 3  6  7  2 
903	 3  6  7  3 
904	 3  6  7  4 
905	 3  6  7  5 
906	 3  6  8  1 
907	 3  6  8  2 
908	 3  6  8  3 
909	 3  6  8  4 
910	 3  6  8  5 
911	 3  6  9  1 
912	 3  6  9  2 
913	 3  6  9  3 
914	 3  6  9  4 
915	 3  6  9  5 
916	 3  7  4  1 
917	 3  7  4  2 
918	 3  7  4  3 
919	 3  7  4  4 
920	 3  7  4  5 
921	 3  7  4  6 
922	 3  7  5  1 
923	 3  7  5  2 
924	 3  7  5  3 
925	 3  7  5  4 
926	 3  7  5  5 
927	 3  7  5  6 
928	 3  7  6  1 
929	 3  7  6  2 
930	 3  7  6  3 
931	 3  7  6  4 
932	 3  7  6  5 
933	 3  7  6  6 
934	 3  7  7  1 
935	 3  7  7  2 
936	 3  7  7  3 
937	 3  7  7  4 
938	 3  7  7  5 
939	 3  7  7  6 
940	 3  7  8  1 
941	 3  7  8  2 
942	 3  7  8  3 
943	 3  7  8  4 
944	 3  7  8  5 
945	 3  7  8  6 
946	 3  7  9  1 
947	 3  7  9  2 
948	 3  7  9  3 
949	 3  7  9  4 
950	 3  7  9  5 
951	 3  7  9  6 
952	 3  8  4  1 
953	 3  8  4  2 
954	 3  8  4  3 
955	 3  8  4  4 
956	 3  8  4  5 
957	 3  8  4  6 
958	 3  8  4  7 
959	 3  8  5  1 
960	 3  8  5  2 
961	 3  8  5  3 
962	 3  8  5  4 
963	 3  8  5  5 
964	 3  8  5  6 
965	 3  8  5  7 
966	 3  8  6  1 
967	 3  8  6  2 
968	 3  8  6  3 
969	 3  8  6  4 
970	 3  8  6  5 
971	 3  8  6  6 
972	 3  8  6  7 
973	 3  8  7  1 
974	 3  8  7  2 
975	 3  8  7  3 
976	 3  8  7  4 
977	 3  8  7  5 
978	 3  8  7  6 
979	 3  8  7  7 
980	 3  8  8  1 
981	 3  8  8  2 
982	 3  8  8  3 
983	 3  8  8  4 
984	 3  8  8  5 
985	 3  8  8  6 
986	 3  8  8  7 
987	 3  8  9  1 
988	 3  8  9  2 
989	 3  8  9  3 
990	 3  8  9  4 
991	 3  8  9  5 
992	 3  8  9  6 
993	 3  8  9  7 
994	 3  9  4  1 
995	 3  9  4  2 
996	 3  9  4  3 
997	 3  9  4  4 
998	 3  9  4  5 
999	 3  9  4  6 
1000	 3  9  4  7 
1001	 3  9  4  8 
1002	 3  9  5  1 
1003	 3  9  5  2 
1004	 3  9  5  3 
1005	 3  9  5  4 
1006	 3  9  5  5 
1007	 3  9  5  6 
1008	 3  9  5  7 
1009	 3  9  5  8 
1010	 3  9  6  1 
1011	 3  9  6  2 
1012	 3  9  6  3 
1013	 3  9  6  4 
1014	 3  9  6  5 
1015	 3  9  6  6 
1016	 3  9  6  7 
1017	 3  9  6  8 
1018	 3  9  7  1 
1019	 3  9  7  2 
1020	 3  9  7  3 
1021	 3  9  7  4 
1022	 3  9  7  5 
1023	 3  9  7  6 
1024	 3  9  7  7 
1025	 3  9  7  8 
1026	 3  9  8  1 
1027	 3  9  8  2 
1028	 3  9  8  3 
1029	 3  9  8  4 
1030	 3  9  8  5 
1031	 3  9  8  6 
1032	 3  9  8  7 
1033	 3  9  8  8 
1034	 3  9  9  1 
1035	 3  9  9  2 
1036	 3  9  9  3 
1037	 3  9  9  4 
1038	 3  9  9  5 
1039	 3  9  9  6 
1040	 3  9  9  7 
1041	 3  9  9  8 
1042	 3  10  4  1 
1043	 3  10  4  2 
1044	 3  10  4  3 
1045	 3  10  4  4 
1046	 3  10  4  5 
1047	 3  10  4  6 
1048	 3  10  4  7 
1049	 3  10  4  8 
1050	 3  10  4  9 
1051	 3  10  5  1 
1052	 3  10  5  2 
1053	 3  10  5  3 
1054	 3  10  5  4 
1055	 3  10  5  5 
1056	 3  10  5  6 
1057	 3  10  5  7 
1058	 3  10  5  8 
1059	 3  10  5  9 
1060	 3  10  6  1 
1061	 3  10  6  2 
1062	 3  10  6  3 
1063	 3  10  6  4 
1064	 3  10  6  5 
1065	 3  10  6  6 
1066	 3  10  6  7 
1067	 3  10  6  8 
1068	 3  10  6  9 
1069	 3  10  7  1 
1070	 3  10  7  2 
1071	 3  10  7  3 
1072	 3  10  7  4 
1073	 3  10  7  5 
1074	 3  10  7  6 
1075	 3  10  7  7 
1076	 3  10  7  8 
1077	 3  10  7  9 
1078	 3  10  8  1 
1079	 3  10  8  2 
1080	 3  10  8  3 
1081	 3  10  8  4 
1082	 3  10  8  5 
1083	 3  10  8  6 
1084	 3  10  8  7 
1085	 3  10  8  8 
1086	 3  10  8  9 
1087	 3  10  9  1 
1088	 3  10  9  2 
1089	 3  10  9  3 
1090	 3  10  9  4 
1091	 3  10  9  5 
1092	 3  10  9  6 
1093	 3  10  9  7 
1094	 3  10  9  8 
1095	 3  10  9  9 
1096	 3  11  4  1 
1097	 3  11  4  2 
1098	 3  11  4  3 
1099	 3  11  4  4 
1100	 3  11  4  5 
1101	 3  11  4  6 
1102	 3  11  4  7 
1103	 3  11  4  8 
1104	 3  11  4  9 
1105	 3  11  4  10 
1106	 3  11  5  1 
1107	 3  11  5  2 
1108	 3  11  5  3 
1109	 3  11  5  4 
1110	 3  11  5  5 
1111	 3  11  5  6 
1112	 3  11  5  7 
1113	 3  11  5  8 
1114	 3  11  5  9 
1115	 3  11  5  10 
1116	 3  11  6  1 
1117	 3  11  6  2 
1118	 3  11  6  3 
1119	 3  11  6  4 
1120	 3  11  6  5 
1121	 3  11  6  6 
1122	 3  11  6  7 
1123	 3  11  6  8 
1124	 3  11  6  9 
1125	 3  11  6  10 
1126	 3  11  7  1 
1127	 3  11  7  2 
1128	 3  11  7  3 
1129	 3  11  7  4 
1130	 3  11  7  5 
1131	 3  11  7  6 
1132	 3  11  7  7 
1133	 3  11  7  8 
1134	 3  11  7  9 
1135	 3  11  7  10 
1136	 3  11  8  1 
1137	 3  11  8  2 
1138	 3  11  8  3 
1139	 3  11  8  4 
1140	 3  11  8  5 
1141	 3  11  8  6 
1142	 3  11  8  7 
1143	 3  11  8  8 
1144	 3  11  8  9 
1145	 3  11  8  10 
1146	 3  11  9  1 
1147	 3  11  9  2 
1148	 3  11  9  3 
1149	 3  11  9  4 
1150	 3  11  9  5 
1151	 3  11  9  6 
1152	 3  11  9  7 
1153	 3  11  9  8 
1154	 3  11  9  9 
1155	 3  11  9  10 
1156	 4  2  5  1 
1157	 4  2  6  1 
1158	 4  2  7  1 
1159	 4  2  8  1 
1160	 4  2  9  1 
1161	 4  3  5  1 
1162	 4  3  5  2 
1163	 4  3  6  1 
1164	 4  3  6  2 
1165	 4  3  7  1 
1166	 4  3  7  2 
1167	 4  3  8  1 
1168	 4  3  8  2 
1169	 4  3  9  1 
1170	 4  3  9  2 
1171	 4  4  5  1 
1172	 4  4  5  2 
1173	 4  4  5  3 
1174	 4  4  6  1 
1175	 4  4  6  2 
1176	 4  4  6  3 
1177	 4  4  7  1 
1178	 4  4  7  2 
1179	 4  4  7  3 
1180	 4  4  8  1 
1181	 4  4  8  2 
1182	 4  4  8  3 
1183	 4  4  9  1 
1184	 4  4  9  2 
1185	 4  4  9  3 
1186	 4  5  5  1 
1187	 4  5  5  2 
1188	 4  5  5  3 
1189	 4  5  5  4 
1190	 4  5  6  1 
1191	 4  5  6  2 
1192	 4  5  6  3 
1193	 4  5  6  4 
1194	 4  5  7  1 
1195	 4  5  7  2 
1196	 4  5  7  3 
1197	 4  5  7  4 
1198	 4  5  8  1 
1199	 4  5  8  2 
1200	 4  5  8  3 
1201	 4  5  8  4 
1202	 4  5  9  1 
1203	 4  5  9  2 
1204	 4  5  9  3 
1205	 4  5  9  4 
1206	 4  6  5  1 
1207	 4  6  5  2 
1208	 4  6  5  3 
1209	 4  6  5  4 
1210	 4  6  5  5 
1211	 4  6  6  1 
1212	 4  6  6  2 
1213	 4  6  6  3 
1214	 4  6  6  4 
1215	 4  6  6  5 
1216	 4  6  7  1 
1217	 4  6  7  2 
1218	 4  6  7  3 
1219	 4  6  7  4 
1220	 4  6  7  5 
1221	 4  6  8  1 
1222	 4  6  8  2 
1223	 4  6  8  3 
1224	 4  6  8  4 
1225	 4  6  8  5 
1226	 4  6  9  1 
1227	 4  6  9  2 
1228	 4  6  9  3 
1229	 4  6  9  4 
1230	 4  6  9  5 
1231	 4  7  5  1 
1232	 4  7  5  2 
1233	 4  7  5  3 
1234	 4  7  5  4 
1235	 4  7  5  5 
1236	 4  7  5  6 
1237	 4  7  6  1 
1238	 4  7  6  2 
1239	 4  7  6  3 
1240	 4  7  6  4 
1241	 4  7  6  5 
1242	 4  7  6  6 
1243	 4  7  7  1 
1244	 4  7  7  2 
1245	 4  7  7  3 
1246	 4  7  7  4 
1247	 4  7  7  5 
1248	 4  7  7  6 
1249	 4  7  8  1 
1250	 4  7  8  2 
1251	 4  7  8  3 
1252	 4  7  8  4 
1253	 4  7  8  5 
1254	 4  7  8  6 
1255	 4  7  9  1 
1256	 4  7  9  2 
1257	 4  7  9  3 
1258	 4  7  9  4 
1259	 4  7  9  5 
1260	 4  7  9  6 
1261	 4  8  5  1 
1262	 4  8  5  2 
1263	 4  8  5  3 
1264	 4  8  5  4 
1265	 4  8  5  5 
1266	 4  8  5  6 
1267	 4  8  5  7 
1268	 4  8  6  1 
1269	 4  8  6  2 
1270	 4  8  6  3 
1271	 4  8  6  4 
1272	 4  8  6  5 
1273	 4  8  6  6 
1274	 4  8  6  7 
1275	 4  8  7  1 
1276	 4  8  7  2 
1277	 4  8  7  3 
1278	 4  8  7  4 
1279	 4  8  7  5 
1280	 4  8  7  6 
1281	 4  8  7  7 
1282	 4  8  8  1 
1283	 4  8  8  2 
1284	 4  8  8  3 
1285	 4  8  8  4 
1286	 4  8  8  5 
1287	 4  8  8  6 
1288	 4  8  8  7 
1289	 4  8  9  1 
1290	 4  8  9  2 
1291	 4  8  9  3 
1292	 4  8  9  4 
1293	 4  8  9  5 
1294	 4  8  9  6 
1295	 4  8  9  7 
1296	 4  9  5  1 
1297	 4  9  5  2 
1298	 4  9  5  3 
1299	 4  9  5  4 
1300	 4  9  5  5 
1301	 4  9  5  6 
1302	 4  9  5  7 
1303	 4  9  5  8 
1304	 4  9  6  1 
1305	 4  9  6  2 
1306	 4  9  6  3 
1307	 4  9  6  4 
1308	 4  9  6  5 
1309	 4  9  6  6 
1310	 4  9  6  7 
1311	 4  9  6  8 
1312	 4  9  7  1 
1313	 4  9  7  2 
1314	 4  9  7  3 
1315	 4  9  7  4 
1316	 4  9  7  5 
1317	 4  9  7  6 
1318	 4  9  7  7 
1319	 4  9  7  8 
1320	 4  9  8  1 
1321	 4  9  8  2 
1322	 4  9  8  3 
1323	 4  9  8  4 
1324	 4  9  8  5 
1325	 4  9  8  6 
1326	 4  9  8  7 
1327	 4  9  8  8 
1328	 4  9  9  1 
1329	 4  9  9  2 
1330	 4  9  9  3 
1331	 4  9  9  4 
1332	 4  9  9  5 
1333	 4  9  9  6 
1334	 4  9  9  7 
1335	 4  9  9  8 
1336	 4  10  5  1 
1337	 4  10  5  2 
1338	 4  10  5  3 
1339	 4  10  5  4 
1340	 4  10  5  5 
1341	 4  10  5  6 
1342	 4  10  5  7 
1343	 4  10  5  8 
1344	 4  10  5  9 
1345	 4  10  6  1 
1346	 4  10  6  2 
1347	 4  10  6  3 
1348	 4  10  6  4 
1349	 4  10  6  5 
1350	 4  10  6  6 
1351	 4  10  6  7 
1352	 4  10  6  8 
1353	 4  10  6  9 
1354	 4  10  7  1 
1355	 4  10  7  2 
1356	 4  10  7  3 
1357	 4  10  7  4 
1358	 4  10  7  5 
1359	 4  10  7  6 
1360	 4  10  7  7 
1361	 4  10  7  8 
1362	 4  10  7  9 
1363	 4  10  8  1 
1364	 4  10  8  2 
1365	 4  10  8  3 
1366	 4  10  8  4 
1367	 4  10  8  5 
1368	 4  10  8  6 
1369	 4  10  8  7 
1370	 4  10  8  8 
1371	 4  10  8  9 
1372	 4  10  9  1 
1373	 4  10  9  2 
1374	 4  10  9  3 
1375	 4  10  9  4 
1376	 4  10  9  5 
1377	 4  10  9  6 
1378	 4  10  9  7 
1379	 4  10  9  8 
1380	 4  10  9  9 
1381	 4  11  5  1 
1382	 4  11  5  2 
1383	 4  11  5  3 
1384	 4  11  5  4 
1385	 4  11  5  5 
1386	 4  11  5  6 
1387	 4  11  5  7 
1388	 4  11  5  8 
1389	 4  11  5  9 
1390	 4  11  5  10 
1391	 4  11  6  1 
1392	 4  11  6  2 
1393	 4  11  6  3 
1394	 4  11  6  4 
1395	 4  11  6  5 
1396	 4  11  6  6 
1397	 4  11  6  7 
1398	 4  11  6  8 
1399	 4  11  6  9 
1400	 4  11  6  10 
1401	 4  11  7  1 
1402	 4  11  7  2 
1403	 4  11  7  3 
1404	 4  11  7  4 
1405	 4  11  7  5 
1406	 4  11  7  6 
1407	 4  11  7  7 
1408	 4  11  7  8 
1409	 4  11  7  9 
1410	 4  11  7  10 
1411	 4  11  8  1 
1412	 4  11  8  2 
1413	 4  11  8  3 
1414	 4  11  8  4 
1415	 4  11  8  5 
1416	 4  11  8  6 
1417	 4  11  8  7 
1418	 4  11  8  8 
1419	 4  11  8  9 
1420	 4  11  8  10 
1421	 4  11  9  1 
1422	 4  11  9  2 
1423	 4  11  9  3 
1424	 4  11  9  4 
1425	 4  11  9  5 
1426	 4  11  9  6 
1427	 4  11  9  7 
1428	 4  11  9  8 
1429	 4  11  9  9 
1430	 4  11  9  10 
1431	 5  2  6  1 
1432	 5  2  7  1 
1433	 5  2  8  1 
1434	 5  2  9  1 
1435	 5  3  6  1 
1436	 5  3  6  2 
1437	 5  3  7  1 
1438	 5  3  7  2 
1439	 5  3  8  1 
1440	 5  3  8  2 
1441	 5  3  9  1 
1442	 5  3  9  2 
1443	 5  4  6  1 
1444	 5  4  6  2 
1445	 5  4  6  3 
1446	 5  4  7  1 
1447	 5  4  7  2 
1448	 5  4  7  3 
1449	 5  4  8  1 
1450	 5  4  8  2 
1451	 5  4  8  3 
1452	 5  4  9  1 
1453	 5  4  9  2 
1454	 5  4  9  3 
1455	 5  5  6  1 
1456	 5  5  6  2 
1457	 5  5  6  3 
1458	 5  5  6  4 
1459	 5  5  7  1 
1460	 5  5  7  2 
1461	 5  5  7  3 
1462	 5  5  7  4 
1463	 5  5  8  1 
1464	 5  5  8  2 
1465	 5  5  8  3 
1466	 5  5  8  4 
1467	 5  5  9  1 
1468	 5  5  9  2 
1469	 5  5  9  3 
1470	 5  5  9  4 
1471	 5  6  6  1 
1472	 5  6  6  2 
1473	 5  6  6  3 
1474	 5  6  6  4 
1475	 5  6  6  5 
1476	 5  6  7  1 
1477	 5  6  7  2 
1478	 5  6  7  3 
1479	 5  6  7  4 
1480	 5  6  7  5 
1481	 5  6  8  1 
1482	 5  6  8  2 
1483	 5  6  8  3 
1484	 5  6  8  4 
1485	 5  6  8  5 
1486	 5  6  9  1 
1487	 5  6  9  2 
1488	 5  6  9  3 
1489	 5  6  9  4 
1490	 5  6  9  5 
1491	 5  7  6  1 
1492	 5  7  6  2 
1493	 5  7  6  3 
1494	 5  7  6  4 
1495	 5  7  6  5 
1496	 5  7  6  6 
1497	 5  7  7  1 
1498	 5  7  7  2 
1499	 5  7  7  3 
1500	 5  7  7  4 
1501	 5  7  7  5 
1502	 5  7  7  6 
1503	 5  7  8  1 
1504	 5  7  8  2 
1505	 5  7  8  3 
1506	 5  7  8  4 
1507	 5  7  8  5 
1508	 5  7  8  6 
1509	 5  7  9  1 
1510	 5  7  9  2 
1511	 5  7  9  3 
1512	 5  7  9  4 
1513	 5  7  9  5 
1514	 5  7  9  6 
1515	 5  8  6  1 
1516	 5  8  6  2 
1517	 5  8  6  3 
1518	 5  8  6  4 
1519	 5  8  6  5 
1520	 5  8  6  6 
1521	 5  8  6  7 
1522	 5  8  7  1 
1523	 5  8  7  2 
1524	 5  8  7  3 
1525	 5  8  7  4 
1526	 5  8  7  5 
1527	 5  8  7  6 
1528	 5  8  7  7 
1529	 5  8  8  1 
1530	 5  8  8  2 
1531	 5  8  8  3 
1532	 5  8  8  4 
1533	 5  8  8  5 
1534	 5  8  8  6 
1535	 5  8  8  7 
1536	 5  8  9  1 
1537	 5  8  9  2 
1538	 5  8  9  3 
1539	 5  8  9  4 
1540	 5  8  9  5 
1541	 5  8  9  6 
1542	 5  8  9  7 
1543	 5  9  6  1 
1544	 5  9  6  2 
1545	 5  9  6  3 
1546	 5  9  6  4 
1547	 5  9  6  5 
1548	 5  9  6  6 
1549	 5  9  6  7 
1550	 5  9  6  8 
1551	 5  9  7  1 
1552	 5  9  7  2 
1553	 5  9  7  3 
1554	 5  9  7  4 
1555	 5  9  7  5 
1556	 5  9  7  6 
1557	 5  9  7  7 
1558	 5  9  7  8 
1559	 5  9  8  1 
1560	 5  9  8  2 
1561	 5  9  8  3 
1562	 5  9  8  4 
1563	 5  9  8  5 
1564	 5  9  8  6 
1565	 5  9  8  7 
1566	 5  9  8  8 
1567	 5  9  9  1 
1568	 5  9  9  2 
1569	 5  9  9  3 
1570	 5  9  9  4 
1571	 5  9  9  5 
1572	 5  9  9  6 
1573	 5  9  9  7 
1574	 5  9  9  8 
1575	 5  10  6  1 
1576	 5  10  6  2 
1577	 5  10  6  3 
1578	 5  10  6  4 
1579	 5  10  6  5 
1580	 5  10  6  6 
1581	 5  10  6  7 
1582	 5  10  6  8 
1583	 5  10  6  9 
1584	 5  10  7  1 
1585	 5  10  7  2 
1586	 5  10  7  3 
1587	 5  10  7  4 
1588	 5  10  7  5 
1589	 5  10  7  6 
1590	 5  10  7  7 
1591	 5  10  7  8 
1592	 5  10  7  9 
1593	 5  10  8  1 
1594	 5  10  8  2 
1595	 5  10  8  3 
1596	 5  10  8  4 
1597	 5  10  8  5 
1598	 5  10  8  6 
1599	 5  10  8  7 
1600	 5  10  8  8 
1601	 5  10  8  9 
1602	 5  10  9  1 
1603	 5  10  9  2 
1604	 5  10  9  3 
1605	 5  10  9  4 
1606	 5  10  9  5 
1607	 5  10  9  6 
1608	 5  10  9  7 
1609	 5  10  9  8 
1610	 5  10  9  9 
1611	 5  11  6  1 
1612	 5  11  6  2 
1613	 5  11  6  3 
1614	 5  11  6  4 
1615	 5  11  6  5 
1616	 5  11  6  6 
1617	 5  11  6  7 
1618	 5  11  6  8 
1619	 5  11  6  9 
1620	 5  11  6  10 
1621	 5  11  7  1 
1622	 5  11  7  2 
1623	 5  11  7  3 
1624	 5  11  7  4 
1625	 5  11  7  5 
1626	 5  11  7  6 
1627	 5  11  7  7 
1628	 5  11  7  8 
1629	 5  11  7  9 
1630	 5  11  7  10 
1631	 5  11  8  1 
1632	 5  11  8  2 
1633	 5  11  8  3 
1634	 5  11  8  4 
1635	 5  11  8  5 
1636	 5  11  8  6 
1637	 5  11  8  7 
1638	 5  11  8  8 
1639	 5  11  8  9 
1640	 5  11  8  10 
1641	 5  11  9  1 
1642	 5  11  9  2 
1643	 5  11  9  3 
1644	 5  11  9  4 
1645	 5  11  9  5 
1646	 5  11  9  6 
1647	 5  11  9  7 
1648	 5  11  9  8 
1649	 5  11  9  9 
1650	 5  11  9  10 
1651	 6  2  7  1 
1652	 6  2  8  1 
1653	 6  2  9  1 
1654	 6  3  7  1 
1655	 6  3  7  2 
1656	 6  3  8  1 
1657	 6  3  8  2 
1658	 6  3  9  1 
1659	 6  3  9  2 
1660	 6  4  7  1 
1661	 6  4  7  2 
1662	 6  4  7  3 
1663	 6  4  8  1 
1664	 6  4  8  2 
1665	 6  4  8  3 
1666	 6  4  9  1 
1667	 6  4  9  2 
1668	 6  4  9  3 
1669	 6  5  7  1 
1670	 6  5  7  2 
1671	 6  5  7  3 
1672	 6  5  7  4 
1673	 6  5  8  1 
1674	 6  5  8  2 
1675	 6  5  8  3 
1676	 6  5  8  4 
1677	 6  5  9  1 
1678	 6  5  9  2 
1679	 6  5  9  3 
1680	 6  5  9  4 
1681	 6  6  7  1 
1682	 6  6  7  2 
1683	 6  6  7  3 
1684	 6  6  7  4 
1685	 6  6  7  5 
1686	 6  6  8  1 
1687	 6  6  8  2 
1688	 6  6  8  3 
1689	 6  6  8  4 
1690	 6  6  8  5 
1691	 6  6  9  1 
1692	 6  6  9  2 
1693	 6  6  9  3 
1694	 6  6  9  4 
1695	 6  6  9  5 
1696	 6  7  7  1 
1697	 6  7  7  2 
1698	 6  7  7  3 
1699	 6  7  7  4 
1700	 6  7  7  5 
1701	 6  7  7  6 
1702	 6  7  8  1 
1703	 6  7  8  2 
1704	 6  7  8  3 
1705	 6  7  8  4 
1706	 6  7  8  5 
1707	 6  7  8  6 
1708	 6  7  9  1 
1709	 6  7  9  2 
1710	 6  7  9  3 
1711	 6  7  9  4 
1712	 6  7  9  5 
1713	 6  7  9  6 
1714	 6  8  7  1 
1715	 6  8  7  2 
1716	 6  8  7  3 
1717	 6  8  7  4 
1718	 6  8  7  5 
1719	 6  8  7  6 
1720	 6  8  7  7 
1721	 6  8  8  1 
1722	 6  8  8  2 
1723	 6  8  8  3 
1724	 6  8  8  4 
1725	 6  8  8  5 
1726	 6  8  8  6 
1727	 6  8  8  7 
1728	 6  8  9  1 
1729	 6  8  9  2 
1730	 6  8  9  3 
1731	 6  8  9  4 
1732	 6  8  9  5 
1733	 6  8  9  6 
1734	 6  8  9  7 
1735	 6  9  7  1 
1736	 6  9  7  2 
1737	 6  9  7  3 
1738	 6  9  7  4 
1739	 6  9  7  5 
1740	 6  9  7  6 
1741	 6  9  7  7 
1742	 6  9  7  8 
1743	 6  9  8  1 
1744	 6  9  8  2 
1745	 6  9  8  3 
1746	 6  9  8  4 
1747	 6  9  8  5 
1748	 6  9  8  6 
1749	 6  9  8  7 
1750	 6  9  8  8 
1751	 6  9  9  1 
1752	 6  9  9  2 
1753	 6  9  9  3 
1754	 6  9  9  4 
1755	 6  9  9  5 
1756	 6  9  9  6 
1757	 6  9  9  7 
1758	 6  9  9  8 
1759	 6  10  7  1 
1760	 6  10  7  2 
1761	 6  10  7  3 
1762	 6  10  7  4 
1763	 6  10  7  5 
1764	 6  10  7  6 
1765	 6  10  7  7 
1766	 6  10  7  8 
1767	 6  10  7  9 
1768	 6  10  8  1 
1769	 6  10  8  2 
1770	 6  10  8  3 
1771	 6  10  8  4 
1772	 6  10  8  5 
1773	 6  10  8  6 
1774	 6  10  8  7 
1775	 6  10  8  8 
1776	 6  10  8  9 
1777	 6  10  9  1 
1778	 6  10  9  2 
1779	 6  10  9  3 
1780	 6  10  9  4 
1781	 6  10  9  5 
1782	 6  10  9  6 
1783	 6  10  9  7 
1784	 6  10  9  8 
1785	 6  10  9  9 
1786	 6  11  7  1 
1787	 6  11  7  2 
1788	 6  11  7  3 
1789	 6  11  7  4 
1790	 6  11  7  5 
1791	 6  11  7  6 
1792	 6  11  7  7 
1793	 6  11  7  8 
1794	 6  11  7  9 
1795	 6  11  7  10 
1796	 6  11  8  1 
1797	 6  11  8  2 
1798	 6  11  8  3 
1799	 6  11  8  4 
1800	 6  11  8  5 
1801	 6  11  8  6 
1802	 6  11  8  7 
1803	 6  11  8  8 
1804	 6  11  8  9 
1805	 6  11  8  10 
1806	 6  11  9  1 
1807	 6  11  9  2 
1808	 6  11  9  3 
1809	 6  11  9  4 
1810	 6  11  9  5 
1811	 6  11  9  6 
1812	 6  11  9  7 
1813	 6  11  9  8 
1814	 6  11  9  9 
1815	 6  11  9  10 
1816	 7  2  8  1 
1817	 7  2  9  1 
1818	 7  3  8  1 
1819	 7  3  8  2 
1820	 7  3  9  1 
1821	 7  3  9  2 
1822	 7  4  8  1 
1823	 7  4  8  2 
1824	 7  4  8  3 
1825	 7  4  9  1 
1826	 7  4  9  2 
1827	 7  4  9  3 
1828	 7  5  8  1 
1829	 7  5  8  2 
1830	 7  5  8  3 
1831	 7  5  8  4 
1832	 7  5  9  1 
1833	 7  5  9  2 
1834	 7  5  9  3 
1835	 7  5  9  4 
1836	 7  6  8  1 
1837	 7  6  8  2 
1838	 7  6  8  3 
1839	 7  6  8  4 
1840	 7  6  8  5 
1841	 7  6  9  1 
1842	 7  6  9  2 
1843	 7  6  9  3 
1844	 7  6  9  4 
1845	 7  6  9  5 
1846	 7  7  8  1 
1847	 7  7  8  2 
1848	 7  7  8  3 
1849	 7  7  8  4 
1850	 7  7  8  5 
1851	 7  7  8  6 
1852	 7  7  9  1 
1853	 7  7  9  2 
1854	 7  7  9  3 
1855	 7  7  9  4 
1856	 7  7  9  5 
1857	 7  7  9  6 
1858	 7  8  8  1 
1859	 7  8  8  2 
1860	 7  8  8  3 
1861	 7  8  8  4 
1862	 7  8  8  5 
1863	 7  8  8  6 
1864	 7  8  8  7 
1865	 7  8  9  1 
1866	 7  8  9  2 
1867	 7  8  9  3 
1868	 7  8  9  4 
1869	 7  8  9  5 
1870	 7  8  9  6 
1871	 7  8  9  7 
1872	 7  9  8  1 
1873	 7  9  8  2 
1874	 7  9  8  3 
1875	 7  9  8  4 
1876	 7  9  8  5 
1877	 7  9  8  6 
1878	 7  9  8  7 
1879	 7  9  8  8 
1880	 7  9  9  1 
1881	 7  9  9  2 
1882	 7  9  9  3 
1883	 7  9  9  4 
1884	 7  9  9  5 
1885	 7  9  9  6 
1886	 7  9  9  7 
1887	 7  9  9  8 
1888	 7  10  8  1 
1889	 7  10  8  2 
1890	 7  10  8  3 
1891	 7  10  8  4 
1892	 7  10  8  5 
1893	 7  10  8  6 
1894	 7  10  8  7 
1895	 7  10  8  8 
1896	 7  10  8  9 
1897	 7  10  9  1 
1898	 7  10  9  2 
1899	 7  10  9  3 
1900	 7  10  9  4 
1901	 7  10  9  5 
1902	 7  10  9  6 
1903	 7  10  9  7 
1904	 7  10  9  8 
1905	 7  10  9  9 
1906	 7  11  8  1 
1907	 7  11  8  2 
1908	 7  11  8  3 
1909	 7  11  8  4 
1910	 7  11  8  5 
1911	 7  11  8  6 
1912	 7  11  8  7 
1913	 7  11  8  8 
1914	 7  11  8  9 
1915	 7  11  8  10 
1916	 7  11  9  1 
1917	 7  11  9  2 
1918	 7  11  9  3 
1919	 7  11  9  4 
1920	 7  11  9  5 
1921	 7  11  9  6 
1922	 7  11  9  7 
1923	 7  11  9  8 
1924	 7  11  9  9 
1925	 7  11  9  10 
1926	 8  2  9  1 
1927	 8  3  9  1 
1928	 8  3  9  2 
1929	 8  4  9  1 
1930	 8  4  9  2 
1931	 8  4  9  3 
1932	 8  5  9  1 
1933	 8  5  9  2 
1934	 8  5  9  3 
1935	 8  5  9  4 
1936	 8  6  9  1 
1937	 8  6  9  2 
1938	 8  6  9  3 
1939	 8  6  9  4 
1940	 8  6  9  5 
1941	 8  7  9  1 
1942	 8  7  9  2 
1943	 8  7  9  3 
1944	 8  7  9  4 
1945	 8  7  9  5 
1946	 8  7  9  6 
1947	 8  8  9  1 
1948	 8  8  9  2 
1949	 8  8  9  3 
1950	 8  8  9  4 
1951	 8  8  9  5 
1952	 8  8  9  6 
1953	 8  8  9  7 
1954	 8  9  9  1 
1955	 8  9  9  2 
1956	 8  9  9  3 
1957	 8  9  9  4 
1958	 8  9  9  5 
1959	 8  9  9  6 
1960	 8  9  9  7 
1961	 8  9  9  8 
1962	 8  10  9  1 
1963	 8  10  9  2 
1964	 8  10  9  3 
1965	 8  10  9  4 
1966	 8  10  9  5 
1967	 8  10  9  6 
1968	 8  10  9  7 
1969	 8  10  9  8 
1970	 8  10  9  9 
1971	 8  11  9  1 
1972	 8  11  9  2 
1973	 8  11  9  3 
1974	 8  11  9  4 
1975	 8  11  9  5 
1976	 8  11  9  6 
1977	 8  11  9  7 
1978	 8  11  9  8 
1979	 8  11  9  9 
1980	 8  11  9  10 ;